
Log started (V11.0.0) Wed May 14 15:24:32 2008

Tried aggregator 1 time.
Reduced MIP has 140 rows, 4001 columns, and 8040 nonzeros.
Presolve time =    0.03 sec.
Clique table members: 100.
MIP emphasis: balance optimality and feasibility.
MIP search method: dynamic search.
Parallel mode: none, using 1 thread.
Root relaxation solution time =    0.14 sec.

        Nodes                                         Cuts/
   Node  Left     Objective  IInf  Best Integer     Best Node    ItCnt     Gap

*     0+    0                         2397.0000       58.9977      407   97.54%
*     0+    0                           97.0000       58.9977      407   39.18%
      0     0       59.4816    75       97.0000      Fract: 4      470   38.68%
*     0+    0                           93.0000       59.4816      470   36.04%
      0     0       64.3789    67       93.0000      Cuts: 34      741   30.78%
*     0+    0                           87.0000       64.3789      741   26.00%
      0     0       64.5510    70       87.0000       Cuts: 9      807   25.80%
*     0+    0                           86.0000       64.5510      807   24.94%
      0     0       64.5754    74       86.0000       Cuts: 8      840   24.91%
*     0+    0                           84.0000       64.5754      840   23.12%
      0     0       64.6811    76       84.0000       Cuts: 5      848   23.00%
*     0+    0                           82.0000       64.6811      848   21.12%
      0     0       64.7906    74       82.0000       Cuts: 3      855   20.99%
*     0+    0                           81.0000       64.7906      855   20.01%
      0     0       64.9091    75       81.0000    MIRcuts: 3      867   19.87%
*     0+    0                           80.0000       64.9091      867   18.86%
      0     0       65.2253    74       80.0000       Cuts: 3      881   18.47%
      0     0       65.3769    73       80.0000    MIRcuts: 5      923   18.28%
*     0+    0                           79.0000       65.3769      923   17.24%
      0     0       65.6713    63       79.0000       Cuts: 6      959   16.87%
      0     0       65.7077    64       79.0000       Cuts: 4      989   16.83%
      0     0       65.7238    64       79.0000       Cuts: 3     1009   16.81%
      0     0       65.7245    65       79.0000       65.7245     1012   16.80%
*     0+    0                           77.0000       65.7245     1012   14.64%
*     0+    0                           74.0000       65.7245     1012   11.18%

Repeating presolve.
Tried aggregator 1 time.
MIP Presolve eliminated 8 rows and 1134 columns.
MIP Presolve modified 668 coefficients.
Reduced MIP has 132 rows, 2867 columns, and 5764 nonzeros.
Tried aggregator 1 time.
Represolve time =    0.16 sec.
Clique table members: 297.
MIP emphasis: balance optimality and feasibility.
MIP search method: dynamic search.
Parallel mode: none, using 1 thread.
Root relaxation solution time =    0.06 sec.

        Nodes                                         Cuts/
   Node  Left     Objective  IInf  Best Integer     Best Node    ItCnt     Gap

      0     0       66.1954    72       74.0000       66.1954      535   10.55%
      0     2       67.0000    62       74.0000       66.1954      535   10.55%
    100   101       68.0000    43       74.0000       67.0000     1505    9.46%
    200   186       69.0000    37       74.0000       67.0000     3554    9.46%
    300   277       71.0000    29       74.0000       67.0000     4923    9.46%
    400   339       72.4576    24       74.0000       67.0000     6275    9.46%
    500   404       72.4487    26       74.0000       67.0000     7946    9.46%
*   511+  272                           73.0000       72.1353     9096    1.18%

Cover cuts applied:  25
Flow cuts applied:  1
Mixed integer rounding cuts applied:  13
Gomory fractional cuts applied:  2

Solution pool: 13 solutions saved.

MIP - Integer optimal solution:  Objective = 7.3000000000e+001
Solution time =    5.33 sec.  Iterations = 9096  Nodes = 511 (272)


Incumbent solution
Variable Name           Solution Value
Cmax                         73.000000
X_1_20                        1.000000
X_2_20                        1.000000
X_3_9                         1.000000
X_4_34                        1.000000
X_5_28                        1.000000
X_6_32                        1.000000
X_7_16                        1.000000
X_8_9                         1.000000
X_9_25                        1.000000
X_10_9                        1.000000
X_11_9                        1.000000
X_12_9                        1.000000
X_13_18                       1.000000
X_14_40                       1.000000
X_15_39                       1.000000
X_16_12                       1.000000
X_17_6                        1.000000
X_18_19                       1.000000
X_19_11                       1.000000
X_20_39                       1.000000
X_21_31                       1.000000
X_22_30                       1.000000
X_23_24                       1.000000
X_24_22                       1.000000
X_25_28                       1.000000
X_26_6                        1.000000
X_27_32                       1.000000
X_28_18                       1.000000
X_29_7                        1.000000
X_30_40                       1.000000
X_31_8                        1.000000
X_32_39                       1.000000
X_33_34                       1.000000
X_34_11                       1.000000
X_35_18                       1.000000
X_36_6                        1.000000
X_37_6                        1.000000
X_38_40                       1.000000
X_39_18                       1.000000
X_40_14                       1.000000
X_41_6                        1.000000
X_42_5                        1.000000
X_43_12                       1.000000
X_44_18                       1.000000
X_45_28                       1.000000
X_46_39                       1.000000
X_47_23                       1.000000
X_48_13                       1.000000
X_49_19                       1.000000
X_50_20                       1.000000
X_51_20                       1.000000
X_52_30                       1.000000
X_53_13                       1.000000
X_54_22                       1.000000
X_55_39                       1.000000
X_56_38                       1.000000
X_57_34                       1.000000
X_58_35                       1.000000
X_59_39                       1.000000
X_60_35                       1.000000
X_61_29                       1.000000
X_62_27                       1.000000
X_63_30                       1.000000
X_64_18                       1.000000
X_65_6                        1.000000
X_66_6                        1.000000
X_67_2                        1.000000
X_68_24                       1.000000
X_69_39                       1.000000
X_70_9                        1.000000
X_71_20                       1.000000
X_72_26                       1.000000
X_73_9                        1.000000
X_74_26                       1.000000
X_75_6                        1.000000
X_76_18                       1.000000
X_77_3                        1.000000
X_78_35                       1.000000
X_79_33                       1.000000
X_80_18                       1.000000
X_81_39                       1.000000
X_82_20                       1.000000
X_83_7                        1.000000
X_84_8                        1.000000
X_85_18                       1.000000
X_86_30                       1.000000
X_87_18                       1.000000
X_88_6                        1.000000
X_89_6                        1.000000
X_90_30                       1.000000
X_91_39                       1.000000
X_92_39                       1.000000
X_93_40                       1.000000
X_94_39                       1.000000
X_95_31                       1.000000
X_96_3                        1.000000
X_97_30                       1.000000
X_98_14                       1.000000
X_99_26                       1.000000
X_100_32                      1.000000
All other variables in the range 1-4001 are 0.
